CONTCAR\(2)                             
   1.00000000000000     
    12.3605231354779708   -0.0060281140874310    0.0000000000000000
    -6.1526642769785154   10.6556157158310931    0.0000000000000000
     0.0000000000000000    0.0000000000000000   27.8031005859000011
   C    N    O    K 
   142     3     7     1
Direct
  0.0007107199104024  0.0002860428646667  0.1682406726772643
  0.0003108335540547  0.0009150385361569  0.0235436561641664
  0.0038470234030687  0.0098581967757688  0.3314846339272979
  0.0675115266066213  0.1337659708302364  0.1681866342492922
  0.1335522500970228  0.0674688722814825  0.0235949517442932
  0.1364068819704592  0.0756696688937783  0.3304741500342555
  0.2007624568428663  0.0002971907933644  0.1682141971676882
  0.2003215005597893  0.0009159664808896  0.0235713914483646
  0.1988560689748650  0.0048393116900169  0.3341256378762534
  0.2675485468763658  0.1337698054279699  0.1682591760273685
  0.3335519581154146  0.0674512479035897  0.0235874899631256
  0.3327979397227228  0.0675391075506606  0.3311389722605751
  0.4007935371994225  0.0003106913470358  0.1678745852920976
  0.4002915450531315  0.0008685533072069  0.0235379463566913
  0.3962978212128834  0.0009516244196098  0.3333415240392215
  0.4676039026858105  0.1337887215056736  0.1678987385206225
  0.5335229407064398  0.0674127502035854  0.0235338075779576
  0.5324866915137647  0.0664991960661770  0.3359888423301741
  0.6007841119848147  0.0003336999598369  0.1676104866585355
  0.6002865451310818  0.0008654360958295  0.0235134756246077
  0.6002088317426881  0.9964926695432184  0.3290997154181070
  0.6675527392220948  0.1337767440311072  0.1674184818429478
  0.7335231270138759  0.0674412659370196  0.0235337040569707
  0.7326873670300823  0.0671024386053574  0.3278631436185757
  0.8006968981297854  0.0002827493726472  0.1678753714051200
  0.8003008421613481  0.0009057231721739  0.0235096147642027
  0.8035823139331556  0.0070605332905495  0.3322844529149084
  0.8674737305175909  0.1337665486522753  0.1676711813076717
  0.9335417366648430  0.0674655517939775  0.0235410090129379
  0.9400365429355825  0.0785459220456305  0.3304586260838003
  0.0007335884231222  0.2003161752221756  0.1679025511657037
  0.0003098513134891  0.2009181986080397  0.0235711827751769
  0.0100433108031495  0.2132440288493108  0.3315792073984555
  0.0675381278775982  0.3337840125733569  0.1678293355309647
  0.1335500452581092  0.2674789136729360  0.0236084592091140
  0.1475728895321374  0.2843125906156235  0.3306747411413453
  0.2007727424962447  0.2003362911015810  0.1682581212954541
  0.2003137858698207  0.2009223414762207  0.0236370508960562
  0.2078558245039658  0.2103786706880949  0.3291488847184166
  0.2675635133930713  0.3337961736901010  0.1681724627075470
  0.3335496688114429  0.2674605912308814  0.0236454013662588
  0.4008087637679268  0.2003417762690682  0.1681316773730146
  0.4003003021807815  0.2008964932682866  0.0236321089720916
  0.3947452436976289  0.2044678046872050  0.3285355929440382
  0.4675633777596173  0.3337902226542511  0.1681422119275842
  0.5335365642313836  0.2674354174207473  0.0235981404556045
  0.5308739670422691  0.2767205111237115  0.3290180069062947
  0.6008270232223408  0.2003288420454363  0.1676137359230626
  0.6002895677014247  0.2008685712158391  0.0235742784702157
  0.5972345173243311  0.2036330453176543  0.3387447715450943
  0.6675658900770020  0.3337550015521145  0.1677122718027187
  0.7335246107807164  0.2674284002969185  0.0235592446758468
  0.7324321688935012  0.2749644048196510  0.3284372300929866
  0.8007534415105181  0.2003366506257658  0.1673328789199585
  0.8002946149048291  0.2008838728966875  0.0235547830044280
  0.8006854163511926  0.2036947485479297  0.3227326203351643
  0.8675123945635005  0.3337414678773322  0.1673689354531962
  0.9335269848612042  0.2674536172019269  0.0235621381225629
  0.9355809632245623  0.2733664502515274  0.3329405179309969
  0.0007220899590273  0.4002948278042817  0.1676101998647163
  0.0003158303359285  0.4008984747237037  0.0235633385231375
  0.9901235779787573  0.3999823306762220  0.3433211756588591
  0.0675740414371330  0.5337653517327967  0.1677473281981632
  0.1335525866798193  0.4674660755688841  0.0235534583580621
  0.1219347454472533  0.4651347600110282  0.3527899269429314
  0.2007944090704883  0.4003437894327411  0.1679882817730256
  0.2003243444496230  0.4009250369605202  0.0235849523161147
  0.2093256622720850  0.4254625864213223  0.3344267171374601
  0.2675803514905181  0.5337913793047689  0.1678902980037469
  0.3335543117699453  0.4674667534796910  0.0235720683085264
  0.4007856279694337  0.4003261928799102  0.1681693262349612
  0.4003094384903340  0.4009027602156843  0.0236081099222492
  0.4675178594253673  0.5337546117164557  0.1681011640486371
  0.5335408500847205  0.4674451781919648  0.0235622592368883
  0.6007896664069382  0.4002905056622678  0.1680139919080831
  0.6003061603366813  0.4008900702155799  0.0235770039716267
  0.5974016713390344  0.4022669860316295  0.3278310235348814
  0.6674977478518096  0.5337218683066952  0.1681180111336049
  0.7335394857011334  0.4674325331735227  0.0235388017924925
  0.7230337420690183  0.4774716529714246  0.3438865444264411
  0.8007717554530590  0.4002663722684772  0.1675551330132326
  0.8003065585465258  0.4008822978026603  0.0235476008910839
  0.7963951528827334  0.4036360114993451  0.3482383953021381
  0.8675144389537747  0.5336877772938131  0.1678493505378664
  0.9335415233922868  0.4674390408902609  0.0235312057333637
  0.9292502412129582  0.4706835171135548  0.3462457064043285
  0.0007669842513488  0.6002798989146161  0.1678618819133933
  0.0003088802031097  0.6008858877563136  0.0235185505634778
  0.9949916538718740  0.6052408741991359  0.3471731931523521
  0.0675546850977824  0.7337285772190842  0.1680257069133720
  0.1335363333196092  0.6674445829250938  0.0234936105143764
  0.1226983023009376  0.6692947547215798  0.3496552633301036
  0.2008182489577812  0.6003325458811716  0.1677705260405457
  0.2003052480395330  0.6009063565753885  0.0235040888479215
  0.1895993238251405  0.6017443527820184  0.3550771366274241
  0.2675840554182037  0.7337553189400372  0.1677253540613810
  0.3335353114420525  0.6674441542658155  0.0234631053504080
  0.3138781234860157  0.6437152869110397  0.3324604245025278
  0.4007790538883794  0.6003036642018438  0.1679327557497456
  0.4003096618827560  0.6009067607999562  0.0235096715532944
  0.4675062904539721  0.7337116528236696  0.1678010216444833
  0.5335351865067358  0.6674454000911589  0.0234877885386292
  0.6007205062295546  0.6002648448846487  0.1681483260968774
  0.6002998302260761  0.6008926381712941  0.0235157578900719
  0.6674622916536217  0.7336980991439993  0.1681270240483948
  0.7335387306750144  0.6674490395467773  0.0234842508441152
  0.8007369656792536  0.6002490317023417  0.1680892296996433
  0.8003102794872675  0.6008960943006849  0.0235140226097696
  0.7997717424544873  0.6168903216475685  0.3400938256663312
  0.8674949487776320  0.7337103837729824  0.1682220209076225
  0.9335451710025006  0.6674466828113581  0.0235074010624371
  0.9303115624734657  0.6750947832213179  0.3424659644311626
  0.0007489005592991  0.8002700322435536  0.1682014210509394
  0.0003151495786756  0.8009023620511915  0.0235103139831330
 -0.0002442432651931  0.8078497343060506  0.3386855849744894
  0.0675059845432589  0.9337378627751762  0.1682805408730034
  0.1335575546351983  0.8674620155251916  0.0235294281677204
  0.1316488760146658  0.8749656828061593  0.3405082654678186
  0.2008079404935678  0.8002788035893518  0.1679051830752850
  0.2002997610041495  0.8008895332543992  0.0234972688506047
  0.1951462205776272  0.8047437225404441  0.3515311151276074
  0.2675440085286268  0.9337347742415780  0.1680327896791343
  0.3335255884376194  0.8674256250477596  0.0234848460649826
  0.3348057320793506  0.8663808260688477  0.3464446238306847
  0.4007744685955774  0.8002654197197355  0.1676789722569746
  0.4002945088081526  0.8008821521385301  0.0234467675578329
  0.3972628057581638  0.7889611073398449  0.3325000216383418
  0.4675404923108030  0.9337150437139565  0.1677077655934963
  0.5335262040383481  0.8674213004996748  0.0234604399476699
  0.5354265121452434  0.8655778235070841  0.3341900852173317
  0.6007017987451172  0.8002474439536403  0.1679183546542107
  0.6003010340118682  0.8008890711255227  0.0234678694541444
  0.6059976708257835  0.8094888525984969  0.3515729245511064
  0.6674735884631545  0.9337049702213991  0.1677890461834127
  0.7335348376153181  0.8674578127795058  0.0234809133188056
  0.7387674807710657  0.8751810673506015  0.3401264220654783
  0.8006935666743186  0.8002529768664901  0.1682071110821384
  0.8003040682366238  0.8009042112739156  0.0234726632224335
  0.8029341309404475  0.8066384449391142  0.3384281658334190
  0.8674556808425173  0.9337184828732905  0.1681486033871453
  0.9335435049348828  0.8674546313770672  0.0234990348772264
  0.9361417493207378  0.8759200635657868  0.3348303449342879
  0.3225377792909871  0.5245298035288620  0.3272194677507411
  0.7372957058349590  0.6792097449204131  0.3391264157332382
  0.3357452051911156  0.2693668743143944  0.3296042937990917
  0.2791817020328340  0.8462412438549834  0.3938756717692822
  0.7441356001450430  0.4310112789168564  0.3895554492585491
  0.5554550524185368  0.7144892302814139  0.3782993791119488
  0.5679108056341505  0.1369278314388125  0.3838231871704632
  0.1679410245270745  0.5300009032647780  0.3990784309194590
  0.7678467268077680  0.2600564146140614  0.2811246907334419
  0.3371688256172049  0.7128030914031809  0.2889301995524133
  0.4790245688159597  0.4916482004309004  0.3881918701195748
 
  0.00000000E+00  0.00000000E+00  0.00000000E+00
  0.00000000E+00  0.00000000E+00  0.00000000E+00
  0.00000000E+00  0.00000000E+00  0.00000000E+00
  0.00000000E+00  0.00000000E+00  0.00000000E+00
  0.00000000E+00  0.00000000E+00  0.00000000E+00
  0.00000000E+00  0.00000000E+00  0.00000000E+00
  0.00000000E+00  0.00000000E+00  0.00000000E+00
  0.00000000E+00  0.00000000E+00  0.00000000E+00
  0.00000000E+00  0.00000000E+00  0.00000000E+00
  0.00000000E+00  0.00000000E+00  0.00000000E+00
  0.00000000E+00  0.00000000E+00  0.00000000E+00
  0.00000000E+00  0.00000000E+00  0.00000000E+00
  0.00000000E+00  0.00000000E+00  0.00000000E+00
  0.00000000E+00  0.00000000E+00  0.00000000E+00
  0.00000000E+00  0.00000000E+00  0.00000000E+00
  0.00000000E+00  0.00000000E+00  0.00000000E+00
  0.00000000E+00  0.00000000E+00  0.00000000E+00
  0.00000000E+00  0.00000000E+00  0.00000000E+00
  0.00000000E+00  0.00000000E+00  0.00000000E+00
  0.00000000E+00  0.00000000E+00  0.00000000E+00
  0.00000000E+00  0.00000000E+00  0.00000000E+00
  0.00000000E+00  0.00000000E+00  0.00000000E+00
  0.00000000E+00  0.00000000E+00  0.00000000E+00
  0.00000000E+00  0.00000000E+00  0.00000000E+00
  0.00000000E+00  0.00000000E+00  0.00000000E+00
  0.00000000E+00  0.00000000E+00  0.00000000E+00
  0.00000000E+00  0.00000000E+00  0.00000000E+00
  0.00000000E+00  0.00000000E+00  0.00000000E+00
  0.00000000E+00  0.00000000E+00  0.00000000E+00
  0.00000000E+00  0.00000000E+00  0.00000000E+00
  0.00000000E+00  0.00000000E+00  0.00000000E+00
  0.00000000E+00  0.00000000E+00  0.00000000E+00
  0.00000000E+00  0.00000000E+00  0.00000000E+00
  0.00000000E+00  0.00000000E+00  0.00000000E+00
  0.00000000E+00  0.00000000E+00  0.00000000E+00
  0.00000000E+00  0.00000000E+00  0.00000000E+00
  0.00000000E+00  0.00000000E+00  0.00000000E+00
  0.00000000E+00  0.00000000E+00  0.00000000E+00
  0.00000000E+00  0.00000000E+00  0.00000000E+00
  0.00000000E+00  0.00000000E+00  0.00000000E+00
  0.00000000E+00  0.00000000E+00  0.00000000E+00
  0.00000000E+00  0.00000000E+00  0.00000000E+00
  0.00000000E+00  0.00000000E+00  0.00000000E+00
  0.00000000E+00  0.00000000E+00  0.00000000E+00
  0.00000000E+00  0.00000000E+00  0.00000000E+00
  0.00000000E+00  0.00000000E+00  0.00000000E+00
  0.00000000E+00  0.00000000E+00  0.00000000E+00
  0.00000000E+00  0.00000000E+00  0.00000000E+00
  0.00000000E+00  0.00000000E+00  0.00000000E+00
  0.00000000E+00  0.00000000E+00  0.00000000E+00
  0.00000000E+00  0.00000000E+00  0.00000000E+00
  0.00000000E+00  0.00000000E+00  0.00000000E+00
  0.00000000E+00  0.00000000E+00  0.00000000E+00
  0.00000000E+00  0.00000000E+00  0.00000000E+00
  0.00000000E+00  0.00000000E+00  0.00000000E+00
  0.00000000E+00  0.00000000E+00  0.00000000E+00
  0.00000000E+00  0.00000000E+00  0.00000000E+00
  0.00000000E+00  0.00000000E+00  0.00000000E+00
  0.00000000E+00  0.00000000E+00  0.00000000E+00
  0.00000000E+00  0.00000000E+00  0.00000000E+00
  0.00000000E+00  0.00000000E+00  0.00000000E+00
  0.00000000E+00  0.00000000E+00  0.00000000E+00
  0.00000000E+00  0.00000000E+00  0.00000000E+00
  0.00000000E+00  0.00000000E+00  0.00000000E+00
  0.00000000E+00  0.00000000E+00  0.00000000E+00
  0.00000000E+00  0.00000000E+00  0.00000000E+00
  0.00000000E+00  0.00000000E+00  0.00000000E+00
  0.00000000E+00  0.00000000E+00  0.00000000E+00
  0.00000000E+00  0.00000000E+00  0.00000000E+00
  0.00000000E+00  0.00000000E+00  0.00000000E+00
  0.00000000E+00  0.00000000E+00  0.00000000E+00
  0.00000000E+00  0.00000000E+00  0.00000000E+00
  0.00000000E+00  0.00000000E+00  0.00000000E+00
  0.00000000E+00  0.00000000E+00  0.00000000E+00
  0.00000000E+00  0.00000000E+00  0.00000000E+00
  0.00000000E+00  0.00000000E+00  0.00000000E+00
  0.00000000E+00  0.00000000E+00  0.00000000E+00
  0.00000000E+00  0.00000000E+00  0.00000000E+00
  0.00000000E+00  0.00000000E+00  0.00000000E+00
  0.00000000E+00  0.00000000E+00  0.00000000E+00
  0.00000000E+00  0.00000000E+00  0.00000000E+00
  0.00000000E+00  0.00000000E+00  0.00000000E+00
  0.00000000E+00  0.00000000E+00  0.00000000E+00
  0.00000000E+00  0.00000000E+00  0.00000000E+00
  0.00000000E+00  0.00000000E+00  0.00000000E+00
  0.00000000E+00  0.00000000E+00  0.00000000E+00
  0.00000000E+00  0.00000000E+00  0.00000000E+00
  0.00000000E+00  0.00000000E+00  0.00000000E+00
  0.00000000E+00  0.00000000E+00  0.00000000E+00
  0.00000000E+00  0.00000000E+00  0.00000000E+00
  0.00000000E+00  0.00000000E+00  0.00000000E+00
  0.00000000E+00  0.00000000E+00  0.00000000E+00
  0.00000000E+00  0.00000000E+00  0.00000000E+00
  0.00000000E+00  0.00000000E+00  0.00000000E+00
  0.00000000E+00  0.00000000E+00  0.00000000E+00
  0.00000000E+00  0.00000000E+00  0.00000000E+00
  0.00000000E+00  0.00000000E+00  0.00000000E+00
  0.00000000E+00  0.00000000E+00  0.00000000E+00
  0.00000000E+00  0.00000000E+00  0.00000000E+00
  0.00000000E+00  0.00000000E+00  0.00000000E+00
  0.00000000E+00  0.00000000E+00  0.00000000E+00
  0.00000000E+00  0.00000000E+00  0.00000000E+00
  0.00000000E+00  0.00000000E+00  0.00000000E+00
  0.00000000E+00  0.00000000E+00  0.00000000E+00
  0.00000000E+00  0.00000000E+00  0.00000000E+00
  0.00000000E+00  0.00000000E+00  0.00000000E+00
  0.00000000E+00  0.00000000E+00  0.00000000E+00
  0.00000000E+00  0.00000000E+00  0.00000000E+00
  0.00000000E+00  0.00000000E+00  0.00000000E+00
  0.00000000E+00  0.00000000E+00  0.00000000E+00
  0.00000000E+00  0.00000000E+00  0.00000000E+00
  0.00000000E+00  0.00000000E+00  0.00000000E+00
  0.00000000E+00  0.00000000E+00  0.00000000E+00
  0.00000000E+00  0.00000000E+00  0.00000000E+00
  0.00000000E+00  0.00000000E+00  0.00000000E+00
  0.00000000E+00  0.00000000E+00  0.00000000E+00
  0.00000000E+00  0.00000000E+00  0.00000000E+00
  0.00000000E+00  0.00000000E+00  0.00000000E+00
  0.00000000E+00  0.00000000E+00  0.00000000E+00
  0.00000000E+00  0.00000000E+00  0.00000000E+00
  0.00000000E+00  0.00000000E+00  0.00000000E+00
  0.00000000E+00  0.00000000E+00  0.00000000E+00
  0.00000000E+00  0.00000000E+00  0.00000000E+00
  0.00000000E+00  0.00000000E+00  0.00000000E+00
  0.00000000E+00  0.00000000E+00  0.00000000E+00
  0.00000000E+00  0.00000000E+00  0.00000000E+00
  0.00000000E+00  0.00000000E+00  0.00000000E+00
  0.00000000E+00  0.00000000E+00  0.00000000E+00
  0.00000000E+00  0.00000000E+00  0.00000000E+00
  0.00000000E+00  0.00000000E+00  0.00000000E+00
  0.00000000E+00  0.00000000E+00  0.00000000E+00
  0.00000000E+00  0.00000000E+00  0.00000000E+00
  0.00000000E+00  0.00000000E+00  0.00000000E+00
  0.00000000E+00  0.00000000E+00  0.00000000E+00
  0.00000000E+00  0.00000000E+00  0.00000000E+00
  0.00000000E+00  0.00000000E+00  0.00000000E+00
  0.00000000E+00  0.00000000E+00  0.00000000E+00
  0.00000000E+00  0.00000000E+00  0.00000000E+00
  0.00000000E+00  0.00000000E+00  0.00000000E+00
  0.00000000E+00  0.00000000E+00  0.00000000E+00
  0.00000000E+00  0.00000000E+00  0.00000000E+00
  0.00000000E+00  0.00000000E+00  0.00000000E+00
  0.00000000E+00  0.00000000E+00  0.00000000E+00
  0.00000000E+00  0.00000000E+00  0.00000000E+00
  0.00000000E+00  0.00000000E+00  0.00000000E+00
  0.00000000E+00  0.00000000E+00  0.00000000E+00
  0.00000000E+00  0.00000000E+00  0.00000000E+00
  0.00000000E+00  0.00000000E+00  0.00000000E+00
  0.00000000E+00  0.00000000E+00  0.00000000E+00
  0.00000000E+00  0.00000000E+00  0.00000000E+00
  0.00000000E+00  0.00000000E+00  0.00000000E+00
  0.00000000E+00  0.00000000E+00  0.00000000E+00
  0.00000000E+00  0.00000000E+00  0.00000000E+00
